\ Model Staff Scheduling Problem with Shift Preferences
\ LP format - for model browsing. Use MPS format to capture full model detail.
Maximize
  1.32 x[0,0] + 3.29 x[0,1] + 4.05 x[0,2] + 3.02 x[0,3] + 9.35 x[0,4]
   + 3.79 x[0,5] + 10.5 x[0,6] + 5.9 x[0,7] + 10.3 x[0,8] + 1.32 x[0,9]
   + 9.42 x[1,0] + 4.59 x[1,1] + 3.8 x[1,2] + 1.75 x[1,3] + 6.66 x[1,4]
   + 3.04 x[1,5] + 9.6 x[1,6] + 3.59 x[1,7] + 3.8 x[1,8] + 9.42 x[1,9]
   + 4.63 x[2,0] + 2.46 x[2,1] + 5.18 x[2,2] + 4.7 x[2,3] + 10.56 x[2,4]
   + 1.64 x[2,5] + 3.17 x[2,6] + 10.08 x[2,7] + 9.78 x[2,8] + 4.63 x[2,9]
   + 9.69 x[3,0] + 3.91 x[3,1] + 3.2 x[3,2] + 9.24 x[3,3] + 10.43 x[3,4]
   + 9.24 x[3,5] + 3.74 x[3,6] + 3.42 x[3,7] + 4.6 x[3,8] + 9.69 x[3,9]
   + 10.93 x[4,0] + 1.03 x[4,1] + 4.64 x[4,2] + 7.87 x[4,3] + 7.21 x[4,4]
   + 8.67 x[4,5] + 6.83 x[4,6] + 4.88 x[4,7] + 10.36 x[4,8] + 10.93 x[4,9]
   + 1.06 x[5,0] + 3.97 x[5,1] + 2.55 x[5,2] + 7.92 x[5,3] + 9.97 x[5,4]
   + 8.29 x[5,5] + 2.71 x[5,6] + 10.83 x[5,7] + 9.74 x[5,8] + 1.06 x[5,9]
   + 10.64 x[6,0] + 9.29 x[6,1] + 8.71 x[6,2] + 9.69 x[6,3] + 7.82 x[6,4]
   + 9.17 x[6,5] + 1.01 x[6,6] + 2.33 x[6,7] + 8.33 x[6,8] + 10.64 x[6,9]
   + 7.07 x[7,0] + 3.67 x[7,1] + 8.56 x[7,2] + 9.31 x[7,3] + 7.96 x[7,4]
   + 5.81 x[7,5] + 8.59 x[7,6] + 10.52 x[7,7] + 8.94 x[7,8] + 7.07 x[7,9]
   + 7.03 x[8,0] + 1.86 x[8,1] + 7.75 x[8,2] + 7.4 x[8,3] + 3.04 x[8,4]
   + 5.77 x[8,5] + 10.24 x[8,6] + 2.31 x[8,7] + 8.11 x[8,8] + 7.03 x[8,9]
   + 10.04 x[9,0] + 3.65 x[9,1] + 9.82 x[9,2] + 9.79 x[9,3] + 8 x[9,4]
   + 1.51 x[9,5] + 3.43 x[9,6] + 7.51 x[9,7] + 5.38 x[9,8] + 10.04 x[9,9]
Subject To
 R0: x[0,0] + x[1,0] + x[2,0] + x[3,0] + x[4,0] + x[5,0] + x[6,0] + x[7,0]
   + x[8,0] + x[9,0] >= 1
 R1: x[0,1] + x[1,1] + x[2,1] + x[3,1] + x[4,1] + x[5,1] + x[6,1] + x[7,1]
   + x[8,1] + x[9,1] >= 1
 R2: x[0,2] + x[1,2] + x[2,2] + x[3,2] + x[4,2] + x[5,2] + x[6,2] + x[7,2]
   + x[8,2] + x[9,2] >= 1
 R3: x[0,3] + x[1,3] + x[2,3] + x[3,3] + x[4,3] + x[5,3] + x[6,3] + x[7,3]
   + x[8,3] + x[9,3] >= 1
 R4: x[0,4] + x[1,4] + x[2,4] + x[3,4] + x[4,4] + x[5,4] + x[6,4] + x[7,4]
   + x[8,4] + x[9,4] >= 1
 R5: x[0,5] + x[1,5] + x[2,5] + x[3,5] + x[4,5] + x[5,5] + x[6,5] + x[7,5]
   + x[8,5] + x[9,5] >= 1
 R6: x[0,6] + x[1,6] + x[2,6] + x[3,6] + x[4,6] + x[5,6] + x[6,6] + x[7,6]
   + x[8,6] + x[9,6] >= 1
 R7: x[0,7] + x[1,7] + x[2,7] + x[3,7] + x[4,7] + x[5,7] + x[6,7] + x[7,7]
   + x[8,7] + x[9,7] >= 1
 R8: x[0,8] + x[1,8] + x[2,8] + x[3,8] + x[4,8] + x[5,8] + x[6,8] + x[7,8]
   + x[8,8] + x[9,8] >= 1
 R9: x[0,9] + x[1,9] + x[2,9] + x[3,9] + x[4,9] + x[5,9] + x[6,9] + x[7,9]
   + x[8,9] + x[9,9] >= 1
 R10: 4.87 x[0,0] + 9.93 x[0,1] + 9.61 x[0,2] + 11.67 x[0,3] + 5.6 x[0,4]
   + 6.24 x[0,5] + 7.4 x[0,6] + 5.6 x[0,7] + 6.73 x[0,8] + 4.87 x[0,9]
   <= 1e+06
 R11: 4.87 x[1,0] + 9.93 x[1,1] + 9.61 x[1,2] + 11.67 x[1,3] + 5.6 x[1,4]
   + 6.24 x[1,5] + 7.4 x[1,6] + 5.6 x[1,7] + 6.73 x[1,8] + 4.87 x[1,9]
   <= 1e+06
 R12: 4.87 x[2,0] + 9.93 x[2,1] + 9.61 x[2,2] + 11.67 x[2,3] + 5.6 x[2,4]
   + 6.24 x[2,5] + 7.4 x[2,6] + 5.6 x[2,7] + 6.73 x[2,8] + 4.87 x[2,9]
   <= 1e+06
 R13: 4.87 x[3,0] + 9.93 x[3,1] + 9.61 x[3,2] + 11.67 x[3,3] + 5.6 x[3,4]
   + 6.24 x[3,5] + 7.4 x[3,6] + 5.6 x[3,7] + 6.73 x[3,8] + 4.87 x[3,9]
   <= 1e+06
 R14: 4.87 x[4,0] + 9.93 x[4,1] + 9.61 x[4,2] + 11.67 x[4,3] + 5.6 x[4,4]
   + 6.24 x[4,5] + 7.4 x[4,6] + 5.6 x[4,7] + 6.73 x[4,8] + 4.87 x[4,9]
   <= 1e+06
 R15: 4.87 x[5,0] + 9.93 x[5,1] + 9.61 x[5,2] + 11.67 x[5,3] + 5.6 x[5,4]
   + 6.24 x[5,5] + 7.4 x[5,6] + 5.6 x[5,7] + 6.73 x[5,8] + 4.87 x[5,9]
   <= 1e+06
 R16: 4.87 x[6,0] + 9.93 x[6,1] + 9.61 x[6,2] + 11.67 x[6,3] + 5.6 x[6,4]
   + 6.24 x[6,5] + 7.4 x[6,6] + 5.6 x[6,7] + 6.73 x[6,8] + 4.87 x[6,9]
   <= 1e+06
 R17: 4.87 x[7,0] + 9.93 x[7,1] + 9.61 x[7,2] + 11.67 x[7,3] + 5.6 x[7,4]
   + 6.24 x[7,5] + 7.4 x[7,6] + 5.6 x[7,7] + 6.73 x[7,8] + 4.87 x[7,9]
   <= 1e+06
 R18: 4.87 x[8,0] + 9.93 x[8,1] + 9.61 x[8,2] + 11.67 x[8,3] + 5.6 x[8,4]
   + 6.24 x[8,5] + 7.4 x[8,6] + 5.6 x[8,7] + 6.73 x[8,8] + 4.87 x[8,9]
   <= 1e+06
 R19: 4.87 x[9,0] + 9.93 x[9,1] + 9.61 x[9,2] + 11.67 x[9,3] + 5.6 x[9,4]
   + 6.24 x[9,5] + 7.4 x[9,6] + 5.6 x[9,7] + 6.73 x[9,8] + 4.87 x[9,9]
   <= 1e+06
Bounds
End
